! wB97X-3c OPT FREQ TightSCF
%pal
  nprocs 40
end
* xyz 0 1
F     -1.848000     2.529390    -1.445991
O      3.130093     2.834683    -1.495377
O      5.700279     2.600057    -1.100138
O      6.267147     0.703010     0.041533
N      2.311318    -0.571048     0.551608
N     -2.496795     0.254483     0.076443
N     -5.065997     0.040626    -0.735344
C      2.075233    -1.827001     1.289940
C      1.448796    -2.935207     0.448423
C      2.911808    -3.020681     0.830375
C      1.269045     0.204275     0.088838
C      3.603719    -0.143224     0.416949
C      1.542652     1.390043    -0.640087
C     -0.080599    -0.142291     0.332362
C     -1.132290     0.637452    -0.167956
C     -3.401633     1.154733     0.800814
C     -2.951938    -1.094598    -0.282506
C      3.924905     1.026198    -0.288767
C      2.877239     1.787877    -0.836671
C     -4.791216     1.204020     0.129114
C     -4.477115    -1.189204    -0.197985
C      0.477836     2.160137    -1.146423
C     -0.844588     1.783344    -0.918634
C      5.351468     1.426440    -0.436679
H      6.670698     2.873023    -1.200678
H     -6.103368    -0.089897    -0.788529
H      1.791953    -1.775440     2.362664
H      1.275561    -2.687900    -0.621070
H      0.788913    -3.623078     1.017827
H      3.590506    -2.862603    -0.034690
H      3.120303    -3.772766     1.620032
H      4.404714    -0.726437     0.857069
H     -0.332414    -1.002895     0.934177
H     -3.512335     0.776607     1.840355
H     -2.981071     2.181466     0.870993
H     -2.494283    -1.847791     0.393314
H     -2.638847    -1.316611    -1.326251
H     -5.572794     1.288520     0.917590
H     -4.853150     2.119570    -0.497162
H     -4.797365    -1.345287     0.857376
H     -4.823194    -2.061693    -0.793829
H      0.664807     3.059702    -1.720268
*
