! wB97X-3c OPT FREQ TightSCF
%pal
  nprocs 40
end
* xyz 0 1
C     -3.692350    -1.166087     0.736672
C     -2.552602    -0.440616     0.069622
C     -1.322918    -0.518017     0.620987
C     -0.112810     0.168923     0.035464
C      1.139685    -0.094411     0.881300
C      2.358333     0.562185     0.267285
C      3.058305     0.038645    -0.763261
C      2.799100    -1.237477    -1.463671
O      1.866395    -2.018554    -1.143027
C      2.817003     1.883638     0.826127
C     -2.804609     0.351767    -1.191336
H     -4.646636    -1.024682     0.187938
H     -3.472279    -2.253982     0.776937
H     -3.826035    -0.784223     1.771017
H     -1.196012    -1.102923     1.529831
H      0.046123    -0.195107    -1.001105
H     -0.297167     1.264744    -0.000750
H      1.310266    -1.180252     1.032908
H      0.964321     0.317988     1.898922
H      3.910783     0.596570    -1.134193
H      3.444879    -1.511780    -2.287110
H      2.148766     2.244204     1.635946
H      3.843183     1.781553     1.238559
H      2.822761     2.650484     0.022436
H     -3.870697     0.304440    -1.495979
H     -2.542860     1.418187    -1.027897
H     -2.192928    -0.055216    -2.023621
*
