! wB97X-3c OPT FREQ TightSCF
%pal
  nprocs 40
end
* xyz 0 1
C     -1.892010     2.271061    -2.096567
C     -0.761531     1.400136    -1.524789
C      0.187395     2.246392    -0.659480
C      1.643928     1.758294    -0.686931
C      1.933863     0.238144    -0.814033
C      0.946255    -0.916366    -0.532881
C      2.028363    -0.561264     0.500516
C      1.634742     0.129307     1.820081
C      3.204303    -1.541519     0.580577
C     -0.500545    -0.686142    -0.151781
C     -1.283053     0.255029    -0.681091
C     -2.725127     0.039941    -0.340133
C     -2.730185    -1.175185     0.582581
C     -1.319335    -1.768529     0.487864
C     -0.785798    -2.205896     1.853743
H     -2.581377     1.655192    -2.712060
H     -1.468055     3.058522    -2.755753
H     -2.464779     2.764172    -1.282190
H     -0.212639     0.982623    -2.398353
H      0.192469     3.300741    -1.016383
H     -0.180525     2.297661     0.388276
H      2.194068     2.189137     0.175264
H      2.114789     2.225983    -1.579164
H      2.731494    -0.025870    -1.542534
H      1.147586    -1.825069    -1.139789
H      2.433143     0.840233     2.117630
H      0.675120     0.676094     1.759501
H      1.550012    -0.628963     2.624919
H      4.107757    -1.006156     0.940334
H      3.436959    -2.002343    -0.403557
H      2.960261    -2.354125     1.296397
H     -3.144576     0.928241     0.179219
H     -3.304714    -0.175812    -1.263280
H     -3.494929    -1.916304     0.262613
H     -2.965672    -0.845815     1.619535
H     -1.336219    -2.647543    -0.194517
H     -1.442412    -2.996335     2.275048
H     -0.765135    -1.350603     2.561598
H      0.236110    -2.627062     1.749574
*
