! wB97X-3c OPT FREQ TightSCF
%pal
  nprocs 40
end
* xyz 0 1
C      3.781732     0.390524    -0.430019
C      2.994395     0.048609     0.831492
C      1.558717    -0.302298     0.492250
C      0.652107     0.761698     0.440670
C     -0.705949     0.708361     0.147558
C     -1.540957     1.822643     0.127370
C     -2.823324     1.422254    -0.179355
C     -2.831240     0.058257    -0.361146
C     -1.546211    -0.444423    -0.173586
C     -1.193849    -1.795725    -0.297735
C      0.103624    -2.299845    -0.134472
C      1.292570    -1.650752     0.205051
C     -2.277827    -2.792964    -0.650439
C     -1.144618     3.243455     0.398551
H      3.794025    -0.477107    -1.123758
H      4.828250     0.643575    -0.158640
H      3.326430     1.264059    -0.943745
H      3.494439    -0.795562     1.355447
H      3.034730     0.912345     1.531290
H      1.055998     1.743959     0.655856
H     -3.686409     2.069614    -0.265154
H     -3.715719    -0.510470    -0.615671
H      0.227851    -3.366521    -0.285406
H      2.145709    -2.319218     0.257343
H     -1.904408    -3.837810    -0.701876
H     -3.078966    -2.766085     0.118304
H     -2.710212    -2.542399    -1.642272
H     -0.743926     3.329845     1.430138
H     -0.367862     3.560900    -0.328164
H     -2.019099     3.921081     0.300118
*
