! wB97X-3c OPT FREQ TightSCF
%pal
  nprocs 40
end
* xyz 0 1
C      2.181313    -0.005247     1.544426
C      2.088756    -0.141415     0.043493
C      2.395479     0.888432    -0.780602
C      2.232445     2.334620    -0.391305
C      0.838870     2.833053    -0.817843
C     -0.260660     2.033653    -0.144277
C     -0.636210     0.837779    -0.667252
C     -1.474961    -0.144680     0.113259
C     -0.764231    -1.442558     0.577750
C     -1.921096    -1.489661    -0.455972
C     -3.271761    -1.984950     0.078937
C     -1.686380    -1.714853    -1.961377
C      0.511396    -2.199861     0.080889
C      1.695638    -1.460406    -0.583543
C     -0.833387     2.550204     1.155654
H      1.381902     0.660794     1.921947
H      3.171241     0.413110     1.823833
H      2.082054    -0.988451     2.046442
H      2.441534     0.707679    -1.851921
H      2.381150     2.498615     0.696583
H      3.004172     2.931285    -0.922392
H      0.748466     3.907978    -0.551425
H      0.734421     2.772519    -1.923961
H     -0.232438     0.548114    -1.629218
H     -2.170309     0.273526     0.872146
H     -1.095726    -1.767675     1.588102
H     -4.095549    -1.505207    -0.490253
H     -3.411471    -1.754808     1.157167
H     -3.338911    -3.085040    -0.053059
H     -2.370556    -1.060818    -2.541517
H     -1.916071    -2.771225    -2.213442
H     -0.653297    -1.517650    -2.290832
H      0.214766    -3.044641    -0.577342
H      0.924991    -2.711369     0.976320
H      1.466489    -1.329810    -1.660941
H      2.584261    -2.126982    -0.549305
H     -0.673703     1.817186     1.972857
H     -0.351207     3.503133     1.458430
H     -1.921423     2.735627     1.036121
*
