! wB97X-3c OPT FREQ TightSCF
%pal
  nprocs 40
end
* xyz 0 1
C      2.616520     1.840692     1.589832
C      1.966180     1.015567     0.520762
C      2.533880     0.878003    -0.715742
C      1.826972    -0.010893    -1.763483
C      0.488759    -0.579024    -1.170384
C     -0.214240     0.641252    -0.522499
C      0.618006     0.308310     0.747999
C      0.742239    -1.160054     0.256135
C     -0.395066    -2.112720     0.747993
C     -1.755070    -1.491019     1.075662
C     -2.379209    -0.797859    -0.129741
C     -1.778245     0.597302    -0.448605
C     -2.325070     1.022642    -1.832276
C     -2.272121     1.643437     0.579183
C      2.091427    -1.905797     0.506963
H      2.001999     1.840339     2.514078
H      3.617021     1.422335     1.827570
H      2.730361     2.887506     1.237991
H      3.477293     1.358521    -0.955830
H      1.603382     0.597443    -2.665587
H      2.493861    -0.843017    -2.071898
H     -0.110440    -1.200010    -1.869128
H      0.067406     1.625392    -0.973951
H      0.156389     0.475914     1.741162
H     -0.537967    -2.915506    -0.008829
H     -0.067551    -2.623867     1.680442
H     -1.689451    -0.819396     1.953883
H     -2.433475    -2.318475     1.379208
H     -3.469637    -0.686815     0.063465
H     -2.299653    -1.472394    -1.011012
H     -1.966816     0.333930    -2.627432
H     -1.993720     2.050725    -2.095557
H     -3.436908     1.010537    -1.839614
H     -3.382257     1.698864     0.582459
H     -1.944640     1.403947     1.609327
H     -1.879287     2.652546     0.328078
H      2.216032    -2.090107     1.595189
H      2.073024    -2.887195    -0.013214
H      3.010075    -1.391060     0.177402
*
