! wB97X-3c OPT FREQ TightSCF
%pal
  nprocs 40
end
* xyz 0 1
C     -3.110948    -1.696215     0.507592
C     -1.660423    -1.305826     0.171326
C     -0.696118    -2.172956     1.063296
C      0.837699    -2.144679     0.767345
C      1.204381    -1.159557    -0.339562
C      1.052010     0.278236     0.224537
C      2.363638    -0.179209    -0.415458
C      3.545211    -0.447263     0.523786
C      2.690420     0.371298    -1.808129
C     -0.238078     0.787393    -0.424324
C     -1.425434     0.229333     0.381955
C     -2.568734     1.188035     0.024550
C     -1.903415     2.566367    -0.054185
C     -0.469385     2.258554    -0.344678
C      0.449999     3.194789    -0.604809
H     -3.253518    -2.792907     0.402365
H     -3.822752    -1.210027    -0.191389
H     -3.363026    -1.401572     1.548977
H     -1.505016    -1.566334    -0.897974
H     -0.848830    -1.884630     2.126856
H     -1.016411    -3.236179     0.995447
H      1.161686    -3.152859     0.430875
H      1.391079    -1.939988     1.708003
H      0.780327    -1.393203    -1.342137
H      1.104722     0.367485     1.333610
H      4.095522    -1.346619     0.176744
H      4.236559     0.421054     0.505403
H      3.230763    -0.603051     1.575920
H      3.234452     1.333375    -1.708025
H      1.784097     0.544086    -2.423637
H      3.342391    -0.350013    -2.343620
H     -0.333369     0.511659    -1.499309
H     -1.241479     0.390099     1.471781
H     -3.372187     1.176755     0.792809
H     -2.993538     0.922882    -0.969219
H     -2.355069     3.178592    -0.864469
H     -1.983518     3.095969     0.919822
H      0.187943     4.247409    -0.566957
H      1.468345     2.919718    -0.855118
*
