! wB97X-3c OPT FREQ TightSCF
%pal
  nprocs 40
end
* xyz 0 1
C      3.635594     0.130223     1.022232
C      2.158176    -0.008938     0.778405
C      1.475310     0.865003    -0.096338
C      0.099675     0.708904    -0.301824
C     -0.617948    -0.309169     0.351709
C      0.068234    -1.173186     1.219193
C      1.440507    -1.024657     1.430014
C     -2.109489    -0.482168     0.131954
C     -2.418069    -0.809646    -1.333850
C     -2.884063     0.757296     0.595430
O      2.132368     1.894480    -0.773762
H      4.007838    -0.636422     1.734804
H      4.187175     0.007448     0.066500
H      3.852937     1.131353     1.450296
H     -0.407900     1.387438    -0.975520
H     -0.457923    -1.966097     1.736098
H      1.942492    -1.706700     2.105209
H     -2.476208    -1.339560     0.739743
H     -2.152115     0.038873    -1.999286
H     -1.846975    -1.708290    -1.651316
H     -3.500949    -1.026354    -1.454858
H     -2.629502     1.644122    -0.022841
H     -3.976914     0.574115     0.515704
H     -2.646250     0.979343     1.657802
H      3.123998     2.072588    -0.678899
*
