! wB97X-3c OPT FREQ TightSCF
%pal
  nprocs 40
end
* xyz 0 1
C     -3.675661     0.106195    -0.434383
C     -2.145946     0.012067    -0.431242
C     -1.517069     1.317189     0.099806
C      0.033038     1.276765     0.159248
C      0.654230    -0.120480    -0.107369
C     -0.185158    -1.161279     0.618954
O      0.315966    -1.948279     1.408257
C     -1.676780    -1.187034     0.414229
C      2.176504    -0.193205     0.248925
C      2.818876    -1.470678    -0.325538
C      2.964393     1.022409    -0.273572
H     -4.114376    -0.832335    -0.835451
H     -4.062757     0.272444     0.593948
H     -4.004868     0.947302    -1.081081
H     -1.818400    -0.138662    -1.484337
H     -1.909206     1.517325     1.122074
H     -1.835674     2.167009    -0.543388
H      0.356771     1.637078     1.160864
H      0.424770     1.994096    -0.594453
H      0.557745    -0.319075    -1.198326
H     -2.167866    -1.154834     1.411938
H     -1.961027    -2.137309    -0.087001
H      2.289744    -0.211442     1.355808
H      2.322968    -2.386040     0.052999
H      3.888134    -1.529174    -0.029326
H      2.758115    -1.472044    -1.435198
H      4.053013     0.885853    -0.097567
H      2.666102     1.946490     0.263836
H      2.794421     1.159648    -1.363133
*
