! wB97X-3c OPT FREQ TightSCF
%pal
  nprocs 40
end
* xyz 0 1
C      3.400117     0.846432    -0.934828
C      1.959375     0.745270    -0.517812
C      0.980320     0.931389    -1.418390
C     -0.453420     0.775296    -0.992923
C     -0.624497    -0.512238    -0.150323
C      0.506022    -0.717388     0.911624
C      1.576525     0.390035     0.900596
C     -2.010463    -0.564962     0.478383
C     -2.376025     0.324644     1.416890
C     -2.999064    -1.620740     0.056056
H      4.080485     0.667000    -0.076443
H      3.617068     0.092721    -1.720987
H      3.603344     1.861451    -1.336796
H      1.214063     1.147428    -2.457305
H     -1.107657     0.734245    -1.890534
H     -0.737041     1.671788    -0.400735
H     -0.533289    -1.355899    -0.870666
H      0.093096    -0.795132     1.941010
H      1.011879    -1.687710     0.709935
H      2.460587     0.056307     1.484957
H      1.165615     1.296596     1.395801
H     -3.365102     0.286876     1.863912
H     -1.690830     1.095777     1.755180
H     -3.911561    -1.137612    -0.353112
H     -2.580165    -2.288008    -0.725305
H     -3.279380    -2.243566     0.931816
*
