! wB97X-3c OPT FREQ TightSCF
%pal
  nprocs 40
end
* xyz 0 1
C     -2.574030    -0.214525     0.783325
C     -1.779412     0.327288    -0.377438
C     -2.399783     0.623604    -1.524243
C     -0.313517     0.539147    -0.276701
C      0.394149     0.273280     0.828732
C      1.878792     0.486496     0.879151
C      2.608108    -0.728567     0.379349
C      2.731118    -0.990146    -0.925252
H     -2.191958    -1.219401     1.060482
H     -2.477630     0.468716     1.653050
H     -3.654466    -0.312628     0.542084
H     -1.851174     1.013387    -2.373132
H     -3.467419     0.482826    -1.638369
H      0.208700     0.931432    -1.142545
H     -0.086319    -0.119415     1.715374
H      2.176706     1.391115     0.304307
H      2.169258     0.657267     1.937637
H      3.055029    -1.407879     1.099399
H      3.266810    -1.875116    -1.252800
H      2.307038    -0.326883    -1.672410
*
