! wB97X-3c OPT FREQ TightSCF
%pal
  nprocs 40
end
* xyz 0 1
C     -0.583606    -3.035230    -0.379319
C     -1.225388    -1.648445    -0.260028
C     -2.439675    -1.484065    -1.176814
C     -2.479195    -0.015686    -1.606296
C     -1.190273     0.642990    -1.087511
C     -0.264636    -0.524055    -0.651555
C      0.656775    -0.124471     0.523348
C      1.469092     1.113297     0.054891
C      2.182880    -0.119838     0.596706
C      2.798577    -0.006416     1.995880
C      2.919104    -0.999945    -0.420388
C      0.935164     2.333396     0.822792
C     -0.383152     2.815109     0.167573
C     -1.407725     1.692249     0.022391
C     -2.298207     1.497786     1.012483
H     -1.322958    -3.817739    -0.106275
H      0.281079    -3.111953     0.313461
H     -0.229663    -3.221483    -1.416030
H     -1.566405    -1.507184     0.790898
H     -3.373470    -1.765134    -0.642533
H     -2.343899    -2.126745    -2.080612
H     -3.399141     0.485932    -1.237559
H     -2.505969     0.039358    -2.717433
H     -0.711278     1.164714    -1.946420
H      0.329062    -0.845337    -1.535677
H      0.160354    -0.026507     1.515275
H      1.575230     1.246592    -1.045473
H      3.031228    -1.022061     2.378906
H      2.123332     0.485372     2.725346
H      3.741386     0.576368     1.936552
H      2.740346    -2.068943    -0.180874
H      2.600227    -0.808086    -1.465371
H      4.009572    -0.800773    -0.361062
H      1.688376     3.146522     0.757826
H      0.761786     2.130313     1.900940
H     -0.801376     3.652649     0.767802
H     -0.158574     3.231049    -0.838402
H     -2.953939     0.634500     1.027950
H     -2.365043     2.191903     1.844612
*
