! wB97X-3c OPT FREQ TightSCF
%pal
  nprocs 40
end
* xyz 0 1
C      3.489423    -0.350229    -0.682278
C      1.965676    -0.195192    -0.784497
C      1.508505     1.087959    -0.062899
C     -0.022496     1.214909    -0.057522
C     -0.670246    -0.006289     0.628434
C     -0.271139    -1.316612    -0.076510
C      1.223984    -1.393279    -0.225246
O      1.805449    -2.439607     0.024202
C     -2.184168     0.139754     0.698919
C     -2.804496     0.165406     1.889397
C     -3.020611     0.253564    -0.551748
H      3.800890    -0.472188     0.377597
H      3.993803     0.545559    -1.103438
H      3.824204    -1.236805    -1.262082
H      1.702870    -0.105409    -1.861736
H      1.878062     1.086954     0.986958
H      1.940410     1.975708    -0.574473
H     -0.379717     1.315368    -1.105023
H     -0.303831     2.140243     0.491105
H     -0.259118    -0.055423     1.663616
H     -0.721761    -1.373992    -1.089682
H     -0.640502    -2.182443     0.516286
H     -2.248151     0.084915     2.818157
H     -3.884115     0.267700     1.950995
H     -2.400343     0.214357    -1.469399
H     -3.750556    -0.582476    -0.591899
H     -3.572024     1.217547    -0.547234
*
