! wB97X-3c OPT FREQ TightSCF
%pal
  nprocs 40
end
* xyz 0 1
C      3.443664     1.244358    -0.509609
C      2.517833     0.024044    -0.394582
C      2.852651    -0.824786     0.830845
C      1.584250    -1.607801     1.115417
C      0.451662    -0.613584     0.820460
C      0.988888     0.319100    -0.286950
C      0.609421     1.805546     0.011163
C     -0.914040     2.010337     0.206919
C     -1.785213     1.182426    -0.784271
C     -1.202056    -0.279932    -0.973674
C      0.215351    -0.112615    -1.533651
C     -0.929643    -1.157621     0.306783
C     -2.001176    -1.071217     1.418747
C     -0.899257    -2.654940    -0.119440
C     -3.265940     1.190889    -0.334153
O     -1.738702     1.854398    -2.025418
H      4.495926     0.904795    -0.616743
H      3.183024     1.837058    -1.411410
H      3.381016     1.890168     0.390878
H      2.716742    -0.607158    -1.290295
H      3.086173    -0.178286     1.706628
H      3.712240    -1.502930     0.636216
H      1.553006    -1.958468     2.169707
H      1.582170    -2.485490     0.439380
H      0.314816    -0.029135     1.759393
H      0.940476     2.450423    -0.831662
H      1.129059     2.157039     0.928548
H     -1.146066     3.091618     0.087278
H     -1.166905     1.774185     1.257564
H     -1.834114    -0.827829    -1.708334
H      0.301000     0.627426    -2.358447
H      0.591233    -1.072661    -1.945494
H     -3.012673    -1.268685     1.004937
H     -1.802581    -1.835300     2.201300
H     -1.995469    -0.106531     1.953732
H     -1.901584    -2.969690    -0.483092
H     -0.182243    -2.859020    -0.938362
H     -0.635742    -3.308471     0.740161
H     -3.737696     2.158392    -0.611336
H     -3.393684     1.098773     0.759660
H     -3.833518     0.380637    -0.839148
H     -2.272301     1.330535    -2.680089
*
