! wB97X-3c OPT FREQ TightSCF
%pal
  nprocs 40
end
* xyz 0 1
C      3.704323     0.063085    -0.218348
C      2.189716    -0.017445    -0.440564
C      1.587388    -1.207133     0.317783
C      0.092628    -1.388039    -0.010726
C     -0.642289    -0.071889    -0.405564
C     -0.005813     1.143233     0.321443
C      1.498917     1.301838    -0.023405
O     -0.172789     0.997993     1.710239
C     -2.184134    -0.190987    -0.163277
C     -2.939336     1.096330    -0.542206
C     -2.785834    -1.368518    -0.953156
H      4.125239     0.927165    -0.775469
H      4.195064    -0.861757    -0.589778
H      3.937477     0.182863     0.861610
H      2.020519    -0.178910    -1.529403
H      1.708906    -1.045033     1.412144
H      2.130544    -2.142126     0.057058
H      0.004266    -2.108248    -0.853607
H     -0.395853    -1.852515     0.874075
H     -0.487859     0.086972    -1.497537
H     -0.507433     2.077400    -0.017291
H      1.604652     2.024753    -0.862482
H      2.022447     1.753399     0.848681
H     -0.075479     1.901808     2.109647
H     -2.367121    -0.381831     0.917543
H     -2.656047     1.431914    -1.562817
H     -2.728423     1.905261     0.187083
H     -4.037612     0.930253    -0.515722
H     -3.886495    -1.413107    -0.808380
H     -2.376565    -2.336522    -0.597892
H     -2.573006    -1.260207    -2.038360
*
