! wB97X-3c OPT FREQ TightSCF
%pal
  nprocs 40
end
* xyz 0 1
C      2.066861    -1.034413    -1.248473
C      1.624115    -0.003357    -0.201568
C      0.504843    -0.537499     0.753004
C      0.195442     0.637287     1.704418
C     -0.860159     1.083205     0.679247
C     -0.930121    -0.376286     0.169860
C     -1.963797    -1.218467     0.961708
C     -1.191648    -0.602476    -1.342928
C     -0.123585     1.997231    -0.350391
C      1.188814     1.340783    -0.810218
O      1.898974     1.908027    -1.625919
H      2.311643    -1.996363    -0.750272
H      2.982874    -0.673019    -1.762448
H      1.300572    -1.223118    -2.020987
H      2.523643     0.196876     0.422834
H      0.728791    -1.498845     1.265230
H      1.022328     1.361007     1.891936
H     -0.254193     0.305463     2.665383
H     -1.794805     1.503672     1.109788
H     -2.995407    -0.897436     0.702776
H     -1.852653    -2.293244     0.703334
H     -1.851588    -1.126967     2.061031
H     -0.576558     0.004766    -2.028487
H     -2.248630    -0.353038    -1.576135
H     -1.029936    -1.672354    -1.593040
H      0.106161     2.974045     0.126538
H     -0.781982     2.194520    -1.222559
*
