! wB97X-3c OPT FREQ TightSCF
%pal
  nprocs 40
end
* xyz 0 1
C      2.463945    -0.982109     0.594007
C      2.534391    -0.184756    -0.685095
C      1.431546     0.106878    -1.411765
C      0.025522    -0.257341    -1.004798
C     -0.579861     0.827781    -0.106725
C     -1.979523     0.453483     0.321088
C     -2.143191    -0.474676     1.283153
C     -3.454814    -0.917011     1.784870
O     -3.514177    -1.793534     2.686073
C     -3.155530     1.134197    -0.332466
C      3.891431     0.249869    -1.175072
H      3.474564    -1.104802     1.038125
H      2.057013    -1.994508     0.390054
H      1.824480    -0.466125     1.338594
H      1.538874     0.656479    -2.343282
H      0.001027    -1.248588    -0.504973
H     -0.592252    -0.342004    -1.925256
H     -0.589108     1.790477    -0.662823
H      0.050894     0.987707     0.794030
H     -1.265657    -0.932717     1.726161
H     -4.376935    -0.505861     1.397511
H     -3.805404     0.378412    -0.821919
H     -3.740794     1.692386     0.428428
H     -2.828262     1.853430    -1.111941
H      3.826589     0.889166    -2.081624
H      4.500251    -0.645983    -1.418298
H      4.404980     0.829749    -0.379662
*
