! wB97X-3c OPT FREQ TightSCF
%pal
  nprocs 40
end
* xyz 0 1
C      2.757453    -0.166959    -0.487174
C      2.141686     0.726932     0.583851
O      0.892401     1.259058     0.142610
C     -0.319432     0.551732     0.075327
C     -0.462396    -0.767351     0.552902
C     -1.696264    -1.419564     0.459769
C     -2.794609    -0.766349    -0.104526
C     -2.661727     0.541726    -0.575901
C     -1.430015     1.197111    -0.484815
H      2.105493    -1.040296    -0.693570
H      3.746630    -0.534721    -0.142185
H      2.896068     0.409772    -1.426008
H      2.834034     1.574481     0.771298
H      2.023557     0.178304     1.542104
H      0.366219    -1.297831     0.999205
H     -1.801152    -2.432393     0.826949
H     -3.748395    -1.273088    -0.175166
H     -3.513040     1.048408    -1.011847
H     -1.336510     2.211028    -0.852822
*
