! wB97X-3c OPT FREQ TightSCF
%pal
  nprocs 40
end
* xyz 0 1
C     -4.423020    -0.985591     1.039123
C     -3.899914     0.416698     0.750486
O     -2.502439     0.384265     0.467507
C     -1.971122    -0.057727    -0.751228
O     -2.734290    -0.407688    -1.691931
C     -0.514901    -0.114365    -0.953477
C      0.347847     0.263299    -0.000328
C      1.822440     0.233062    -0.163561
C      2.464822    -0.586590    -1.115150
C      3.859472    -0.586789    -1.220946
C      4.627772     0.219089    -0.378327
C      4.003710     1.022686     0.577707
C      2.609987     1.026676     0.688865
H     -4.313539    -1.632110     0.143619
H     -5.498035    -0.934060     1.312107
H     -3.858149    -1.434059     1.883582
H     -4.457137     0.870249    -0.097916
H     -4.063928     1.049777     1.647800
H     -0.160477    -0.451581    -1.917762
H     -0.040364     0.653379     0.933589
H      1.903731    -1.245700    -1.762438
H      4.345570    -1.218817    -1.953020
H      5.706893     0.215846    -0.461885
H      4.600133     1.642716     1.234524
H      2.144936     1.657334     1.436975
*
