! wB97X-3c OPT FREQ TightSCF
%pal
  nprocs 40
end
* xyz 0 1
C     -0.970317    -3.019359    -0.617734
C     -1.352660    -1.656859    -0.027731
C     -2.775162    -1.266348    -0.402827
C     -2.791460     0.239590    -0.265876
C     -1.428914     0.709133    -0.798673
C     -0.464976    -0.498695    -0.531917
C      0.601342    -0.122655     0.513000
C      1.707955     0.642041    -0.256450
C      2.066217    -0.539782     0.631408
C      2.784579    -0.205143     1.943084
C      2.499500    -1.815948    -0.095964
C      1.559106     2.118536     0.097164
C      0.381133     2.676858    -0.724746
C     -0.967986     2.106338    -0.289294
C     -1.760655     2.903715     0.457069
H      0.040935    -3.313473    -0.273106
H     -1.688448    -3.794204    -0.274504
H     -0.981225    -2.989870    -1.728458
H     -1.299773    -1.729599     1.083366
H     -3.520561    -1.743119     0.270696
H     -3.000398    -1.541494    -1.458053
H     -2.896931     0.461785     0.818499
H     -3.635339     0.690835    -0.831720
H     -1.537299     0.805621    -1.902670
H     -0.010052    -0.796928    -1.503936
H      0.210361     0.357444     1.439163
H      1.822011     0.425114    -1.342974
H      3.843235     0.050889     1.728852
H      2.316586     0.642789     2.483827
H      2.760587    -1.090532     2.612171
H      1.976378    -1.953737    -1.064458
H      3.590196    -1.771189    -0.297181
H      2.294762    -2.695458     0.549059
H      1.398169     2.307692     1.180307
H      2.491095     2.642881    -0.202038
H      0.533788     2.457633    -1.804335
H      0.391391     3.786084    -0.640126
H     -1.418089     3.881301     0.783129
H     -2.769078     2.638113     0.743979
*
