! wB97X-3c OPT FREQ TightSCF
%pal
  nprocs 40
end
* xyz 0 1
C      4.559346     0.477677    -0.071440
C      3.879857    -0.384748     0.991773
C      2.347348    -0.301770     0.930525
C      1.767089    -1.001728    -0.304956
O      0.343313    -1.041147    -0.231002
C     -0.472449     0.074504    -0.458300
O      0.036666     1.166132    -0.833150
C     -1.939619    -0.058064    -0.320009
C     -2.528839    -1.294543    -0.641099
C     -3.914849    -1.456173    -0.599606
C     -4.732537    -0.387917    -0.235528
C     -4.166026     0.840521     0.106874
C     -2.772867     1.017346     0.086963
N     -2.233633     2.267596     0.537822
H      4.203526     1.527878    -0.005944
H      4.356858     0.081013    -1.087733
H      5.657669     0.466359     0.091353
H      4.211411    -1.440330     0.883588
H      4.210804    -0.029728     1.991808
H      1.935174    -0.793728     1.838330
H      2.027518     0.762334     0.952060
H      2.140553    -2.047041    -0.343593
H      2.080374    -0.488256    -1.239000
H     -1.916799    -2.132766    -0.951390
H     -4.356024    -2.409760    -0.859749
H     -5.807160    -0.514555    -0.208106
H     -4.814277     1.652695     0.411552
H     -1.237492     2.368248     0.828811
H     -2.864935     3.079949     0.718330
*
