! wB97X-3c OPT FREQ TightSCF
%pal
  nprocs 40
end
* xyz 0 1
C      3.978569     1.318191     0.010725
C      3.028089     0.174280    -0.083680
O      3.343532    -0.941288     0.412197
O      1.779443     0.366993    -0.684845
C      0.760919    -0.635243    -0.742366
C     -0.186653    -0.378916    -1.936661
C     -1.576381    -0.248398    -1.262774
C     -1.964052    -1.672614    -0.794838
C     -1.030757    -1.901992     0.411345
C     -0.221754    -0.576353     0.472079
C     -1.269504     0.483468     0.052835
C     -0.733517     1.934483    -0.144637
C     -2.501761     0.615897     1.002285
C      0.441698    -0.353059     1.839089
H      5.021005     0.960442    -0.124777
H      3.880803     1.797359     1.006911
H      3.750506     2.066416    -0.777058
H      1.234536    -1.637278    -0.854948
H     -0.154974    -1.219444    -2.664527
H      0.076554     0.544903    -2.494239
H     -2.342724     0.237684    -1.904151
H     -3.033056    -1.718156    -0.496135
H     -1.800473    -2.436377    -1.586539
H     -0.379789    -2.790340     0.255566
H     -1.612383    -2.080929     1.340941
H     -0.389068     2.350114     0.825737
H     -1.548659     2.586727    -0.525200
H      0.098188     2.040984    -0.860546
H     -3.289363     1.226952     0.511601
H     -2.974765    -0.338212     1.296444
H     -2.206218     1.127999     1.942768
H      1.164637    -1.169492     2.046531
H     -0.320909    -0.352343     2.645695
H      0.978282     0.617542     1.865172
*
