! wB97X-3c OPT FREQ TightSCF
%pal
  nprocs 40
end
* xyz 0 1
C      3.879078    -0.213128     0.396356
C      2.416811    -0.057345     0.101269
C      1.763240     1.049370     0.483658
C      0.310024     1.240672     0.136178
C     -0.458633    -0.104921     0.181232
C      0.335512    -1.156477    -0.577426
C      1.673102    -1.155130    -0.553603
C     -1.918749     0.007467    -0.361465
C     -2.664815     1.231938     0.199762
C     -2.735563    -1.256228    -0.030229
H      4.014649    -0.482649     1.464707
H      4.419471     0.735009     0.187830
H      4.325995    -1.010655    -0.234029
H      2.286938     1.842986     1.003717
H     -0.124669     1.961467     0.860626
H      0.245164     1.677013    -0.884373
H     -0.501285    -0.422077     1.247642
H     -0.164318    -1.947878    -1.118593
H      2.214366    -1.956739    -1.040744
H     -1.882849     0.115819    -1.468664
H     -3.729518     1.220118    -0.117882
H     -2.225441     2.173162    -0.191336
H     -2.624449     1.239132     1.310239
H     -3.771364    -1.158914    -0.420315
H     -2.784520    -1.412055     1.068950
H     -2.298178    -2.159956    -0.498349
*
