! wB97X-3c OPT FREQ TightSCF
%pal
  nprocs 40
end
* xyz 0 1
C      4.399614    -0.570965     0.658690
C      2.911635    -0.472565     0.766963
C      2.182857     0.009890    -0.246541
C      0.706134     0.152045    -0.212197
C     -0.106243    -0.570378     0.684112
C     -1.495273    -0.408939     0.670318
C     -2.100185     0.471242    -0.245448
C     -1.294885     1.177363    -1.144318
C      0.093323     1.016943    -1.132952
O     -3.488183     0.668214    -0.296482
C     -4.424363     0.016813     0.555985
H      4.674608    -1.246603    -0.178684
H      4.818772    -0.980363     1.601657
H      4.834889     0.435121     0.480441
H      2.451319    -0.778705     1.695986
H      2.702172     0.355165    -1.134126
H      0.317168    -1.278077     1.382673
H     -2.089735    -0.978646     1.371504
H     -1.748028     1.854598    -1.857281
H      0.691624     1.577352    -1.841274
H     -4.218760     0.274451     1.616456
H     -4.370734    -1.083036     0.412187
H     -5.447728     0.359079     0.299210
*
