! wB97X-3c OPT FREQ TightSCF
%pal
  nprocs 40
end
* xyz 0 1
C      1.849048     0.192797     1.298681
C      2.371892     0.333490    -0.139030
C      3.858429    -0.039228    -0.195053
C      1.567426    -0.540185    -1.123611
C      0.144985    -0.070757    -1.247820
O     -0.105224     0.935316    -1.965031
C     -0.941138    -0.807845    -0.560950
C     -2.132542    -0.289896    -0.196746
C     -3.170331    -1.212888     0.392363
C     -2.441387     1.156666    -0.337977
C     -3.681701     1.616318    -0.499527
H      1.886721    -0.867906     1.627807
H      2.463784     0.805140     1.992435
H      0.801829     0.554853     1.368951
H      2.278639     1.400051    -0.443463
H      4.443958     0.611033     0.489545
H      4.251988     0.104793    -1.223934
H      4.008152    -1.099844     0.101471
H      1.599733    -1.604273    -0.801141
H      2.035473    -0.491236    -2.131303
H     -0.746646    -1.853155    -0.350039
H     -3.849513    -1.566917    -0.411125
H     -2.704181    -2.094611     0.882753
H     -3.765551    -0.683042     1.165898
H     -1.637689     1.880413    -0.296388
H     -3.854260     2.681081    -0.588159
H     -4.531896     0.949831    -0.563159
*
