! wB97X-3c OPT FREQ TightSCF
%pal
  nprocs 40
end
* xyz 0 1
C      1.926100     1.205143     0.794049
C      1.210328     0.142306    -0.068216
C      0.096922     0.720815    -1.013791
C     -0.850943     1.674928    -0.242883
C     -1.605993     0.721675     0.710981
C     -1.070374    -0.662633     0.296402
C     -0.844685    -0.469511    -1.189493
C      0.353218    -0.760698     0.771177
O      0.738954    -1.410159     1.732077
C     -1.965642    -1.848597     0.660253
C      2.264953    -0.662389    -0.857139
H      2.798021     0.759762     1.319646
H      1.261370     1.615518     1.582780
H      2.289914     2.035726     0.152459
H      0.476236     1.147890    -1.967145
H     -1.566137     2.146039    -0.953734
H     -0.328731     2.493279     0.291532
H     -1.381484     0.947759     1.777002
H     -2.703129     0.795226     0.541099
H     -0.378817    -1.350813    -1.681508
H     -1.778084    -0.211716    -1.744082
H     -1.512379    -2.796792     0.300220
H     -2.090807    -1.904855     1.762296
H     -2.966139    -1.731588     0.192306
H      1.815045    -1.483038    -1.450608
H      3.000541    -1.122653    -0.162837
H      2.811741     0.009378    -1.552843
*
