! wB97X-3c OPT FREQ TightSCF
%pal
  nprocs 40
end
* xyz 0 1
C     -1.322264     0.811578     0.009483
C     -0.837381    -0.261631     0.640316
C      0.258317    -1.102320     0.043710
N      1.563402    -0.483442     0.250457
C      1.925128     0.559575    -0.383216
S      2.380997     1.880324    -1.185557
H     -2.114885     1.396551     0.464443
H     -0.938247     1.111305    -0.960873
H     -1.249982    -0.540266     1.605538
H      0.257343    -2.087712     0.554896
H      0.077573    -1.283962    -1.039198
*
