! wB97X-3c OPT FREQ TightSCF
%pal
  nprocs 40
end
* xyz 0 1
C     -4.420674     0.733635     2.217698
C     -4.940468     0.346837     0.855011
C     -4.174112     0.428920    -0.256484
C     -2.723463     0.842271    -0.259523
C     -1.812249    -0.369311    -0.034262
C     -0.360725     0.053396     0.022915
C      0.286701     0.335642    -1.131090
C      1.734180     0.749824    -1.221057
C      2.652994    -0.475692    -1.271938
C      4.105068    -0.053687    -1.381293
C      4.882936     0.182187    -0.300538
C      4.432737     0.014808     1.128122
O      4.246929    -1.340829     1.431937
C      4.694751     0.167155    -2.750173
C      0.315350     0.170067     1.369062
C     -6.372426    -0.109587     0.746760
H     -5.198706     0.578168     2.995026
H     -3.540419     0.115548     2.487646
H     -4.139940     1.807494     2.227067
H     -4.602721     0.160792    -1.218591
H     -2.528302     1.625280     0.503762
H     -2.493494     1.289037    -1.250937
H     -2.097099    -0.883447     0.907773
H     -1.955459    -1.107744    -0.854212
H     -0.255394     0.256148    -2.070156
H      2.008788     1.423247    -0.383266
H      1.867720     1.332243    -2.158626
H      2.382124    -1.092202    -2.156968
H      2.492802    -1.126277    -0.389724
H      5.903643     0.524144    -0.454042
H      3.485856     0.565413     1.299937
H      5.195179     0.453487     1.810408
H      5.151871    -1.744962     1.493326
H      3.944322    -0.013701    -3.548352
H      5.549211    -0.524585    -2.907052
H      5.051645     1.214954    -2.842186
H      0.679383     1.206687     1.525678
H      1.163907    -0.539504     1.437529
H     -0.388878    -0.062183     2.195014
H     -6.533596    -0.984126     1.411455
H     -6.642770    -0.406619    -0.289335
H     -7.047202     0.713137     1.063679
*
