! wB97X-3c OPT FREQ TightSCF
%pal
  nprocs 40
end
* xyz 0 1
C     -1.214125     3.244849    -1.183210
C     -1.148403     2.020834    -0.311018
C      0.024303     1.346533    -0.211558
C      0.212552     0.154229     0.716105
C      1.284693    -0.890293     0.272960
C      0.706867    -1.816784    -0.804876
C     -0.479427    -2.594495    -0.236322
C     -1.497696    -1.700302     0.441284
C     -1.149192    -0.485079     0.958826
C     -2.174431     0.503237     1.459580
C     -2.428760     1.525687     0.347098
C     -2.897062    -2.249005     0.592050
C      2.726926    -0.377977    -0.068218
C      3.219210     0.717737     0.889954
C      2.963909     0.008562    -1.542906
H     -2.244989     3.656622    -1.215695
H     -0.534140     4.026755    -0.784000
H     -0.907093     2.987250    -2.219088
H      0.889834     1.800501    -0.667159
H      0.550204     0.570041     1.690624
H      1.437883    -1.530648     1.174217
H      1.476149    -2.547218    -1.138078
H      0.377202    -1.222894    -1.685785
H     -0.115041    -3.339976     0.503444
H     -0.959247    -3.151687    -1.069935
H     -1.768288     1.028298     2.351716
H     -3.129660     0.037748     1.775615
H     -3.067771     1.061144    -0.434796
H     -2.985072     2.386851     0.775975
H     -2.980200    -3.268325     0.159274
H     -3.621282    -1.593847     0.063723
H     -3.164430    -2.318500     1.667528
H      3.405456    -1.244107     0.108200
H      2.698719     1.679941     0.715611
H      3.059467     0.405107     1.943809
H      4.308217     0.885371     0.747408
H      3.979290     0.441671    -1.667669
H      2.228698     0.735660    -1.926585
H      2.916730    -0.893490    -2.188106
*
