! wB97X-3c OPT FREQ TightSCF
%pal
  nprocs 40
end
* xyz 0 1
C     -4.064488    -0.231144    -0.231335
C     -2.659108     0.311839    -0.257964
C     -1.740398    -0.319066    -1.022065
C     -0.284611     0.075076    -1.112368
C      0.556158    -0.598333    -0.004406
C      2.012114    -0.104481    -0.033754
O      2.061032     1.281097     0.295720
C      3.255976     2.003688     0.343348
O      4.360621     1.438452     0.118331
C      3.226558     3.447907     0.711607
C      0.497001    -2.119790    -0.099409
C      0.987487    -2.771438    -1.167664
C     -0.132352    -2.921779     1.010154
C     -2.322367     1.545593     0.546524
H     -4.055580    -1.273840     0.151324
H     -4.489250    -0.224718    -1.257566
H     -4.727361     0.372941     0.422407
H     -2.044438    -1.192482    -1.594158
H      0.098349    -0.227048    -2.110559
H     -0.180247     1.179305    -1.064224
H      0.139612    -0.284784     0.976304
H      2.611211    -0.674114     0.710856
H      2.455029    -0.260628    -1.041685
H      3.985386     4.006555     0.124103
H      3.445951     3.558095     1.793845
H      2.223528     3.873237     0.498000
H      0.936307    -3.854585    -1.228678
H      1.444312    -2.237273    -1.993996
H      0.616810    -3.619640     1.440338
H     -0.510385    -2.270278     1.825034
H     -0.987853    -3.506672     0.610643
H     -1.999111     2.363311    -0.130932
H     -3.200721     1.909333     1.118904
H     -1.515171     1.325664     1.273823
*
