! wB97X-3c OPT FREQ TightSCF
%pal
  nprocs 40
end
* xyz 0 1
C      3.692319     0.277651     0.370668
C      2.212136     0.241549     0.107492
C      1.389338     1.045725     0.802450
C     -0.097791     1.062862     0.566575
C     -0.609814    -0.330049     0.152341
C      0.169681    -0.842612    -1.073208
C      1.651576    -0.766347    -0.827166
O      2.418892    -1.545997    -1.453330
C     -2.111920    -0.325117    -0.099270
C     -2.657117     0.436769    -1.063272
C     -3.021431    -1.184932     0.740132
H      4.009174     1.268066     0.762782
H      3.954431    -0.505196     1.112671
H      4.256034     0.091529    -0.567553
H      1.795496     1.744769     1.524109
H     -0.312655     1.809968    -0.226868
H     -0.609676     1.388181     1.497967
H     -0.389238    -1.023645     0.994994
H     -0.063050    -0.232693    -1.971826
H     -0.120228    -1.896085    -1.280028
H     -3.729795     0.432497    -1.233601
H     -2.046742     1.073478    -1.694772
H     -3.757573    -0.544999     1.271255
H     -3.565918    -1.901551     0.089357
H     -2.456127    -1.765614     1.498099
*
