! wB97X-3c OPT FREQ TightSCF
%pal
  nprocs 40
end
* xyz 0 1
C     -2.045884    -1.847903     1.095046
C     -1.304403    -0.739842     0.410209
C     -1.676298     0.565432     0.563319
C     -0.867931     1.661228    -0.160670
C      0.307671     1.004336    -0.973796
C     -0.339422    -0.157688    -1.756413
C     -0.097824    -1.015303    -0.499631
C      1.058789    -0.055997    -0.117619
C      2.406844    -0.473104    -0.759160
C      1.308107     0.227709     1.390335
O     -0.377661     2.586826     0.771057
H     -2.002350    -1.702787     2.194904
H     -1.595466    -2.831827     0.847998
H     -3.106369    -1.848337     0.766484
H     -2.525985     0.835044     1.183394
H     -1.553867     2.181488    -0.867657
H      0.932363     1.697023    -1.578478
H     -1.404875    -0.017668    -2.054531
H      0.267698    -0.485807    -2.627601
H      0.167397    -2.079554    -0.680022
H      2.330330    -0.681098    -1.845218
H      3.154652     0.337644    -0.626440
H      2.791614    -1.392542    -0.268548
H      0.407171     0.453235     1.988103
H      1.781845    -0.659466     1.861696
H      2.001717     1.088757     1.494859
H     -0.017866     3.350202     0.248382
*
