! wB97X-3c OPT FREQ TightSCF
%pal
  nprocs 40
end
* xyz 0 1
C      2.221933    -0.199446    -1.731668
C      1.936586     0.099936    -0.242748
C      2.093252     1.603471    -0.047518
C      1.069745     2.453129    -0.239656
C     -0.302798     1.962991    -0.476059
C     -0.562785     0.661877    -0.327460
C      0.473973    -0.325972     0.142940
C     -0.091137    -1.618040    -0.438169
C     -1.457685    -1.431091     0.222392
C     -1.910348    -0.026371    -0.321391
C     -2.922646     0.673473     0.614402
C     -2.505317    -0.113793    -1.741724
C     -0.978622    -1.261285     1.651562
C      0.165973    -0.567627     1.606352
C      2.987065    -0.641351     0.610602
H      3.212563     0.207188    -2.031426
H      1.449161     0.262401    -2.383534
H      2.237188    -1.294042    -1.921190
H      3.079591     2.014446     0.133785
H      1.244608     3.520064    -0.189879
H     -1.095395     2.661944    -0.708191
H      0.444771    -2.530636    -0.082791
H     -0.133731    -1.642002    -1.547449
H     -2.177913    -2.263442     0.073038
H     -3.261775     1.635678     0.174631
H     -3.811213     0.024270     0.765847
H     -2.477266     0.902488     1.605567
H     -3.408196    -0.760911    -1.736283
H     -1.785878    -0.524372    -2.477773
H     -2.799167     0.896542    -2.098853
H     -1.462430    -1.626935     2.550786
H      0.748539    -0.267357     2.470025
H      2.829765    -1.739704     0.554322
H      4.014770    -0.417841     0.250272
H      2.934820    -0.327682     1.674018
*
