! wB97X-3c OPT FREQ TightSCF
%pal
  nprocs 40
end
* xyz 0 1
C     -1.647541     2.608052     1.555788
C     -1.521297     1.526449     0.523499
C     -2.183544     1.629302    -0.643077
C     -2.096282     0.555079    -1.655969
C     -1.580555    -0.640977    -1.339856
C     -1.183152    -0.948438     0.095113
C     -0.576495     0.353997     0.741168
C      0.809213     0.746760     0.154238
C      1.670293    -0.446942    -0.098145
C      1.206442    -1.730907    -0.195819
C     -0.183574    -2.142837     0.153146
O      2.168096    -2.536252    -0.585650
C      3.256219    -1.820073    -0.777465
C      2.994752    -0.493349    -0.480820
C      3.917615     0.663997    -0.683942
C     -2.458267    -1.372702     0.861862
H     -1.346111     3.583400     1.118548
H     -2.700089     2.672184     1.903464
H     -0.997249     2.401406     2.431454
H     -2.794388     2.498753    -0.853153
H     -2.454327     0.739625    -2.660433
H     -1.511071    -1.406062    -2.103602
H     -0.444984     0.174988     1.832073
H      0.687634     1.277350    -0.815644
H      1.326831     1.434298     0.857273
H     -0.146099    -2.556440     1.184525
H     -0.508627    -2.963336    -0.523087
H      4.198397    -2.222659    -1.125288
H      4.971743     0.315673    -0.701660
H      3.681356     1.160588    -1.647896
H      3.798076     1.394193     0.143396
H     -2.880956    -2.304555     0.426951
H     -3.244638    -0.589671     0.815705
H     -2.227423    -1.560897     1.932523
*
