! wB97X-3c OPT FREQ TightSCF
%pal
  nprocs 40
end
* xyz 0 1
C      2.057253    -0.070495     0.991385
C      0.870183    -0.168162     0.007417
C     -0.252590    -1.114174     0.561656
C     -1.348666    -1.363355    -0.502713
C     -2.022451     0.019439    -0.632593
C     -1.307102     0.853888     0.444503
C     -1.026954    -0.193548     1.499112
C      0.089859     1.123600    -0.047085
C      0.532177     2.300991    -0.504118
C      1.403372    -0.576973    -1.384952
H      1.747646     0.287544     1.993403
H      2.822222     0.639485     0.610177
H      2.534437    -1.066703     1.110325
H      0.120113    -2.045448     1.040320
H     -2.080881    -2.108858    -0.119435
H     -0.961385    -1.745556    -1.468138
H     -3.109493    -0.052294    -0.408960
H     -1.882531     0.450273    -1.648770
H     -1.865086     1.743956     0.806943
H     -1.955874    -0.658634     1.905931
H     -0.432796     0.198671     2.352490
H      1.550724     2.406484    -0.862627
H     -0.124277     3.164834    -0.521492
H      1.677939    -1.653320    -1.388514
H      2.306245     0.014290    -1.649202
H      0.657914    -0.385935    -2.185062
*
