! wB97X-3c OPT FREQ TightSCF
%pal
  nprocs 40
end
* xyz 0 1
C     -1.880650     1.752596    -0.037168
C     -2.471992     0.497006     0.560000
C     -1.907032    -0.717655     0.380645
C     -0.628409    -0.960989    -0.381597
C      0.592274    -0.795165     0.530125
C      1.875228    -1.040695    -0.239466
C      2.529965    -0.058525    -0.898173
C      2.087999     1.382842    -0.914119
O      2.946235     2.144631    -1.718783
C      2.423418    -2.442353    -0.310490
C     -3.741486     0.585887     1.367232
H     -0.856554     1.919465     0.352600
H     -1.849598     1.670352    -1.143603
H     -2.486226     2.647135     0.216716
H     -2.388223    -1.589697     0.817183
H     -0.561220    -0.296985    -1.267814
H     -0.647296    -2.005224    -0.762707
H      0.600374     0.207014     1.004157
H      0.518599    -1.525612     1.365376
H      3.433494    -0.312207    -1.448320
H      2.073464     1.793325     0.120611
H      1.064922     1.452665    -1.336024
H      3.778453     2.284048    -1.195057
H      2.487504    -2.768442    -1.370324
H      3.436816    -2.472892     0.142683
H      1.772899    -3.159550     0.232963
H     -4.533127    -0.030911     0.891322
H     -4.111545     1.629687     1.439807
H     -3.558287     0.210248     2.396269
*
