! wB97X-3c OPT FREQ TightSCF
%pal
  nprocs 40
end
* xyz 0 1
C      2.032287    -0.226836    -1.422631
C      1.229405     0.119264    -0.149887
C      0.558928    -1.174145     0.455506
C     -0.271600    -0.761071     1.694335
C     -1.217816     0.401321     1.307435
C     -1.085827     0.704685    -0.212933
O      0.253331     1.113446    -0.495078
C     -1.405002    -0.589184    -1.016052
C     -0.454390    -1.728328    -0.574625
C     -2.042069     1.831753    -0.616363
C      2.216096     0.745876     0.859114
H      1.360065    -0.499132    -2.261480
H      2.621157     0.650084    -1.767915
H      2.732138    -1.068090    -1.229234
H      1.310866    -1.947999     0.724822
H     -0.866490    -1.627185     2.059923
H      0.389183    -0.467219     2.536502
H     -0.950964     1.307942     1.893688
H     -2.267227     0.128669     1.556635
H     -1.272975    -0.395979    -2.103298
H     -2.460977    -0.896580    -0.848353
H      0.067981    -2.166858    -1.450440
H     -1.042284    -2.557443    -0.122243
H     -1.938683     2.052200    -1.700350
H     -3.095693     1.545546    -0.409422
H     -1.805511     2.756616    -0.048050
H      1.680693     1.197678     1.718718
H      2.930686    -0.017279     1.235758
H      2.794689     1.568249     0.385922
*
