! wB97X-3c OPT FREQ TightSCF
%pal
  nprocs 40
end
* xyz 0 1
C     -2.409906    -0.706526    -1.869607
C     -2.023804    -1.262219    -0.519747
C     -2.418480    -0.688854     0.636808
C     -2.779408     0.762688     0.761223
C     -1.526936     1.571164     1.146542
C     -0.582093     1.781114    -0.027149
C     -0.713213     2.905330    -0.752414
C      0.445282     0.751806    -0.509760
C      1.888204     1.195393    -0.255326
C      2.176846    -0.120082     0.482904
C      0.697396    -0.549435     0.294331
C      0.440629    -1.850620    -0.527732
C     -1.009514    -2.379151    -0.443325
C      3.244742    -0.966059    -0.240488
C      2.547356     0.102809     1.960418
H     -3.513762    -0.740131    -1.981803
H     -2.065242     0.339664    -1.988064
H     -1.958577    -1.306849    -2.687211
H     -2.154624    -1.173455     1.574155
H     -3.527082     0.857935     1.577399
H     -3.250682     1.170223    -0.157688
H     -1.864602     2.557985     1.533972
H     -0.996670     1.103879     2.001478
H     -1.450613     3.660122    -0.495911
H     -0.085260     3.085591    -1.620208
H      0.302140     0.547139    -1.594475
H      2.457507     1.319036    -1.203448
H      1.965241     2.094543     0.397168
H      0.183971    -0.599054     1.273967
H      0.705885    -1.699260    -1.596481
H      1.098181    -2.657839    -0.141801
H     -1.183696    -3.101333    -1.269886
H     -1.134513    -2.953461     0.501646
H      3.338129    -1.962965     0.239374
H      4.231134    -0.458683    -0.180269
H      2.998690    -1.101151    -1.314882
H      2.585410    -0.871926     2.491529
H      3.541867     0.591816     2.036694
H      1.800067     0.750817     2.468067
*
