! wB97X-3c OPT FREQ TightSCF
%pal
  nprocs 40
end
* xyz 0 1
C      1.896611    -1.026251    -1.463889
C      1.694392     0.026359    -0.357698
C      0.405053    -0.256275     0.452817
C     -0.880844    -0.032508    -0.359752
C     -2.106858    -0.152013     0.514214
C     -3.362932     0.014683     0.048453
C     -3.631278     0.338834    -1.402202
C     -4.516027    -0.128730     1.007710
C      2.909735     0.066668     0.601312
C      4.183008     0.615685    -0.058038
O      5.188104     0.787918     0.903990
H      1.047419    -1.021226    -2.176044
H      1.994871    -2.042384    -1.025535
H      2.802488    -0.803040    -2.062238
H      1.594069     1.026454    -0.835598
H      0.423912    -1.298783     0.841550
H      0.374787     0.429285     1.329095
H     -0.855723     0.981661    -0.813663
H     -0.952625    -0.791210    -1.165862
H     -1.970020    -0.385807     1.568188
H     -3.144959     1.299511    -1.672449
H     -4.718206     0.437789    -1.603175
H     -3.236074    -0.470514    -2.051241
H     -4.419702     0.617781     1.824416
H     -5.491909     0.031362     0.503931
H     -4.514385    -1.149052     1.446462
H      3.111396    -0.950394     1.004161
H      2.669187     0.725945     1.464334
H      3.971756     1.582264    -0.570296
H      4.557758    -0.101654    -0.816048
H      4.976991     1.627641     1.389995
*
