! wB97X-3c OPT FREQ TightSCF
%pal
  nprocs 40
end
* xyz 0 1
C      3.061633    -1.056697    -0.505340
C      3.037349     0.237723     0.270192
C      1.943556     1.032553     0.308283
C      0.626027     0.694579    -0.343460
C     -0.248036    -0.149356     0.599928
C     -1.582751    -0.603772    -0.056291
C     -2.469598    -1.336388     0.972377
C     -1.306603    -1.541449    -1.222034
C     -0.648778    -2.702306    -1.100515
O     -2.295880     0.524074    -0.591153
C     -2.767880     1.633286     0.127885
O     -2.567251     1.748771     1.366369
C     -3.472715     2.724280    -0.603056
C      4.297750     0.663116     0.977874
H      2.888833    -0.858721    -1.583777
H      4.047973    -1.557427    -0.405421
H      2.286482    -1.752335    -0.125168
H      1.987301     1.971441     0.854070
H      0.100101     1.646901    -0.568224
H      0.788398     0.178618    -1.312214
H     -0.455757     0.446109     1.513812
H      0.321161    -1.038120     0.944274
H     -1.968706    -2.251160     1.353824
H     -3.434587    -1.628941     0.505443
H     -2.688618    -0.693594     1.848565
H     -1.652443    -1.255284    -2.211729
H     -0.480287    -3.321620    -1.975378
H     -0.273811    -3.046684    -0.142911
H     -2.746001     3.519858    -0.868542
H     -3.930176     2.323879    -1.531933
H     -4.273718     3.155650     0.033719
H      5.095996     0.850080     0.229404
H      4.628756    -0.144556     1.663999
H      4.152279     1.587493     1.577129
*
