! wB97X-3c OPT FREQ TightSCF
%pal
  nprocs 40
end
* xyz 0 1
C     -2.768723    -2.621372    -1.122790
C     -2.591872    -1.258029    -0.525782
C     -3.003612    -0.978917     0.745101
C     -2.760437     0.434743     1.308393
C     -2.090135     1.341327     0.217765
C     -2.890479     1.099262    -1.076473
C     -1.956611    -0.104143    -1.314828
C     -0.885697     0.604098    -0.437134
C     -0.004402     1.562770    -1.285010
C      0.033969    -0.294688     0.462619
C      0.809632     0.502663     1.533941
C      2.188626     0.902449     1.065295
C      3.258293     0.075388     1.049142
C      3.179713    -1.342936     1.565072
C      4.576446     0.603128     0.530037
O      4.470430     0.922868    -0.830613
H     -2.217064    -3.369435    -0.515557
H     -3.846817    -2.885919    -1.140673
H     -2.377501    -2.647946    -2.161165
H     -3.468901    -1.740192     1.363663
H     -3.732753     0.877631     1.611537
H     -2.114434     0.375956     2.208914
H     -1.935709     2.405955     0.496707
H     -2.755641     1.911218    -1.823356
H     -3.972702     0.863671    -0.946105
H     -1.687834    -0.307701    -2.374090
H      0.840396     1.006800    -1.744482
H     -0.558886     2.047555    -2.113694
H      0.404261     2.371664    -0.645557
H     -0.515212    -1.093517     0.992245
H      0.736078    -0.843876    -0.200659
H      0.246341     1.419883     1.808279
H      0.890824    -0.093226     2.467966
H      2.319245     1.930668     0.738530
H      4.151962    -1.867228     1.458867
H      2.912316    -1.340050     2.642305
H      2.423770    -1.922692     0.998395
H      5.401143    -0.128373     0.682882
H      4.850576     1.520199     1.093796
H      4.441402     0.060348    -1.321851
*
