! wB97X-3c OPT FREQ TightSCF
%pal
  nprocs 40
end
* xyz 0 1
C      4.151762     0.295448     1.066812
C      3.898963     1.028030    -0.096341
C      2.926799     0.592092    -1.002266
C      2.202494    -0.585011    -0.749464
C      2.458685    -1.313152     0.423701
C      3.431699    -0.873846     1.326899
C      1.139966    -1.053088    -1.705974
O     -0.150114    -0.940777    -1.108954
C     -0.791376     0.284053    -0.883592
O     -0.252338     1.360000    -1.264056
C     -2.103183     0.312444    -0.200582
C     -2.769037     1.531771     0.027270
C     -4.008101     1.550580     0.675346
C     -4.594231     0.356858     1.102143
C     -3.942407    -0.858602     0.881897
C     -2.703190    -0.883539     0.234268
H      4.903996     0.634715     1.767163
H      4.455203     1.934957    -0.295242
H      2.738450     1.172813    -1.896673
H      1.903487    -2.218119     0.637991
H      3.626203    -1.438952     2.229278
H      1.167173    -0.483589    -2.660929
H      1.324374    -2.119681    -1.953937
H     -2.333800     2.469659    -0.294396
H     -4.514072     2.491944     0.846838
H     -5.553239     0.373707     1.603648
H     -4.397500    -1.782996     1.213513
H     -2.216663    -1.837717     0.075638
*
