! wB97X-3c OPT FREQ TightSCF
%pal
  nprocs 40
end
* xyz 0 1
C      2.573048    -1.251526    -0.319929
C      2.279799     0.038300    -0.507347
C      1.509817     0.833297     0.507641
S     -0.070830     1.402993    -0.205054
C     -0.923482    -0.207344    -0.069841
C     -2.336836    -0.083759    -0.555864
C     -3.249360     0.622945     0.117155
H      3.125181    -1.797267    -1.078045
H      2.264969    -1.772969     0.581171
H      2.594990     0.525367    -1.425354
H      2.109448     1.726580     0.779188
H      1.327568     0.256060     1.440078
H     -0.394204    -0.956159    -0.695451
H     -0.921471    -0.557809     0.984561
H     -2.631910    -0.604473    -1.462099
H     -2.988368     1.141419     1.034940
H     -4.268358     0.684344    -0.250740
*
