! wB97X-3c OPT FREQ TightSCF
%pal
  nprocs 40
end
* xyz 0 1
C      4.680079     0.729094    -0.942972
C      3.954277    -0.349284    -0.212977
O      4.600299    -1.166487     0.497850
O      2.560289    -0.413958    -0.287725
C      1.799587    -1.401962     0.400177
C      0.342981    -1.200964     0.121570
C     -0.289150    -0.092902     0.528276
C     -1.725573     0.181751     0.277777
C     -2.184119     1.506785     0.380913
C     -3.530726     1.812387     0.161698
C     -4.436784     0.798038    -0.153435
C     -3.998940    -0.524741    -0.244185
C     -2.652962    -0.836732    -0.026721
H      4.065064     1.091923    -1.793031
H      5.643062     0.341240    -1.337104
H      4.879998     1.573725    -0.251474
H      2.102554    -2.412363     0.049881
H      1.983742    -1.331935     1.494550
H     -0.173534    -1.969556    -0.436253
H      0.288517     0.670833     1.037849
H     -1.496933     2.308267     0.623987
H     -3.871778     2.836852     0.237315
H     -5.479224     1.036078    -0.321217
H     -4.705052    -1.311522    -0.476707
H     -2.355673    -1.874565    -0.076254
*
