! wB97X-3c OPT FREQ TightSCF
%pal
  nprocs 40
end
* xyz 0 1
C     -2.744266     2.053566     0.021219
O     -2.696914     0.655777     0.288663
C     -1.563790    -0.151213     0.100777
C     -1.656497    -1.515862     0.410406
C     -0.545368    -2.352556     0.241998
C      0.659499    -1.834987    -0.236696
C      0.765330    -0.474802    -0.561527
C     -0.345647     0.365701    -0.383759
C      2.075310     0.085506    -1.048886
C      2.997958     0.363305     0.104648
C      2.784764     1.379415     0.945984
O     -2.859118    -2.033574     0.888602
H     -2.006038     2.588860     0.655079
H     -2.536367     2.244156    -1.052873
H     -3.758618     2.433939     0.259395
H     -0.614317    -3.405196     0.485344
H      1.511423    -2.493586    -0.353351
H     -0.252898     1.416806    -0.622186
H      2.558883    -0.649146    -1.728543
H      1.917115     1.015318    -1.638256
H      3.866504    -0.272198     0.250278
H      3.471448     1.557537     1.767025
H      1.930369     2.037837     0.822391
H     -2.958763    -3.014604     1.122211
*
