! wB97X-3c OPT FREQ TightSCF
%pal
  nprocs 40
end
* xyz 0 1
C     -1.949608    -2.375053     0.614334
C     -2.277255    -0.969625     0.087230
C     -3.759396    -0.665077     0.360056
C     -1.351431     0.095055     0.742821
C     -1.657623     1.536784     0.337786
C     -0.396564     2.313446     0.689595
C      0.768761     1.321777     0.521635
C      0.158884    -0.083044     0.476807
C      0.609808    -0.218088    -0.995346
C      1.222858     1.175554    -0.954152
C      2.728913     1.037366    -1.260502
C      3.078264    -0.448411    -1.221962
C      1.764801    -1.144674    -1.180243
C      1.635044    -2.467590    -1.321056
C      1.864785     1.483198     1.591125
H     -0.892980    -2.636782     0.411871
H     -2.587837    -3.132752     0.111562
H     -2.122473    -2.431875     1.710629
H     -2.142494    -0.971238    -1.013675
H     -4.402381    -1.469432    -0.057312
H     -3.949821    -0.586058     1.452050
H     -4.059673     0.284902    -0.129344
H     -1.491852     0.032372     1.846950
H     -2.536207     1.940182     0.886669
H     -1.842347     1.600632    -0.757597
H     -0.471680     2.652645     1.746640
H     -0.278877     3.210668     0.044138
H      0.641255    -0.814442     1.165325
H     -0.178485    -0.309559    -1.770536
H      0.712935     1.876926    -1.652696
H      2.911013     1.419041    -2.289102
H      3.368993     1.630852    -0.576160
H      3.663655    -0.694068    -0.310144
H      3.651107    -0.740499    -2.129182
H      0.655273    -2.931612    -1.320175
H      2.509761    -3.095565    -1.458573
H      2.354590     2.473820     1.484178
H      2.630131     0.683554     1.510426
H      1.418154     1.416668     2.605930
*
