! wB97X-3c OPT FREQ TightSCF
%pal
  nprocs 40
end
* xyz 0 1
C     -1.795705    -2.910094     1.132471
C     -1.833596    -1.622631     0.345056
C     -2.629626    -0.630184     0.820519
C     -2.885384     0.726599     0.202165
C     -2.232674     1.865358     1.023234
C     -1.167693     2.591444     0.226361
C     -1.288927     3.896286    -0.033992
C     -0.055859     1.837539    -0.385353
C      0.429107     0.723735     0.170351
C      1.249342    -0.256990    -0.626844
C      0.524483    -1.629736    -0.640906
C     -0.999344    -1.551126    -0.930253
C      2.690862    -0.355382    -0.043337
C      3.550159    -1.382791    -0.800741
C      3.399815     1.010890    -0.075798
H     -1.368819    -2.721678     2.140358
H     -2.823250    -3.317894     1.241306
H     -1.175563    -3.678951     0.624874
H     -3.152272    -0.805647     1.758466
H     -3.986400     0.878520     0.215403
H     -2.614618     0.776280    -0.869521
H     -1.784140     1.484917     1.966484
H     -3.030093     2.574034     1.340395
H     -0.555015     4.413175    -0.640564
H     -2.117633     4.472419     0.357902
H      0.296223     2.146912    -1.363031
H      0.141441     0.441460     1.175504
H      1.326358     0.086090    -1.684460
H      0.980234    -2.250762    -1.442361
H      0.714363    -2.159825     0.317838
H     -1.222211    -0.673135    -1.563610
H     -1.282055    -2.428708    -1.551508
H      2.629392    -0.681279     1.019385
H      3.554342    -1.163057    -1.889946
H      4.597093    -1.363310    -0.429251
H      3.169199    -2.411896    -0.636220
H      4.433386     0.920871     0.321658
H      2.866276     1.747798     0.560283
H      3.448801     1.400748    -1.115252
*
